% Auto-generated by scripts/generate_dzn.py
% problem_type   = regex
% instance       = regex_83
% source_json    = instances_json/2_high_blowup/regex_83.json
% blowup         = 142.7741935483871
% representation = NFA

mode = 1;

var_count = 38;
n_constraints = 2;
Q = 16;
S = 2;
q0 = [1, 1];
F = [{16}, {15}];
weights = [7, 1, 4, 4, 1, 5, 10, 5, 8, 4, 9, 4, 1, 6, 7, 5, 10, 3, 3, 4, 10, 4, 7, 2, 2, 4, 2, 7, 3, 8, 7, 2, 10, 4, 9, 7, 10, 1];
d_dfa = array3d(1..2, 1..16, 1..2, [
  % k = 1
    0, 0,
    0, 0,
    0, 0,
    0, 0,
    0, 0,
    0, 0,
    0, 0,
    0, 0,
    0, 0,
    0, 0,
    0, 0,
    0, 0,
    0, 0,
    0, 0,
    0, 0,
    0, 0,

  % k = 2
    0, 0,
    0, 0,
    0, 0,
    0, 0,
    0, 0,
    0, 0,
    0, 0,
    0, 0,
    0, 0,
    0, 0,
    0, 0,
    0, 0,
    0, 0,
    0, 0,
    0, 0,
    0, 0
]);
d_nfa = array3d(1..2, 1..16, 1..2, [
  % k = 1
    {1}, {1, 2},
    {}, {3},
    {4}, {4},
    {5}, {5},
    {6}, {6},
    {7}, {7},
    {8}, {8},
    {9}, {9},
    {10}, {10},
    {11}, {11},
    {12}, {12},
    {13}, {13},
    {14}, {14},
    {15}, {15},
    {16}, {16},
    {}, {},

  % k = 2
    {2}, {1},
    {3}, {2},
    {4}, {3},
    {5}, {4},
    {6}, {5},
    {7}, {6},
    {8}, {7},
    {9}, {8},
    {10}, {9},
    {11}, {10},
    {12}, {11},
    {13}, {12},
    {14}, {13},
    {15}, {14},
    {}, {15},
    {}, {}
]);
